
  32    4
  10   10   10   10

   0   0   0   0   0   6 2 3 4 5 6 7 
  10   0   1   1   1   5 12 11 10 9 8 
  10   1   0   6   4   5 12 11 10 9 8 
   6   2   4   0   1   5 12 11 10 9 8 
   6   3   0   4   4   4 12 11 9 8 
   6   0   5   5   5   4 12 11 9 8 
   2   6   3   0   3   4 12 11 9 8 
  10   0   1   3   5   5 17 16 15 14 13 
   1   3   5   0   3   5 17 16 15 14 13 
   8   6   4   0   6   5 17 16 15 14 13 
   1   3   6   2   0   4 16 15 14 13 
   8   1   3   4   0   4 16 15 14 13 
   1   5   3   4   0   6 24 22 21 20 19 18 
   3   4   2   0   2   6 23 22 21 20 19 18 
   3   1   2   0   8   5 24 22 21 20 18 
   2   3   0   4   4   5 23 22 21 19 18 
   9   2   7   4   0   5 24 23 20 19 18 
  10   2   3   5   0   2 26 25 
   1   5   3   7   0   2 26 25 
  10   0   6   5   4   2 26 25 
   8   5   0   2   3   2 26 25 
   9   7   0   2   5   2 26 25 
   7   5   8   5   0   2 26 25 
   7   6   0   5   4   3 31 30 26 
  10  10   6   3   0   5 31 30 29 28 27 
   1   4   3   0   5   3 29 28 27 
   3   4   0   5   4   1 32
   7   0   5   4   4   1 32
   8   0   3   6   6   1 32
   2   4   5   4   0   1 32
   3   0   4   2   3   1 32
   0   0   0   0   0   0 
